p cnf 550 1587 
-1  2 0 
-3  2 0 
 1  3 -2 0 
 1 -4 0 
 3 -4 0 
-1 -3  4 0 
-5  6 0 
-7  6 0 
 5  7 -6 0 
 5 -8 0 
 7 -8 0 
-5 -7  8 0 
-2  9 0 
-6  9 0 
 2  6 -9 0 
 2 -10 0 
 6 -10 0 
-2 -6  10 0 
-4  11 0 
-8  11 0 
 4  8 -11 0 
 4 -12 0 
 8 -12 0 
-4 -8  12 0 
-11  13 0 
-10  13 0 
 11  10 -13 0 
 11 -14 0 
 10 -14 0 
-11 -10  14 0 
-15  16 0 
-17  16 0 
 15  17 -16 0 
 15 -18 0 
 17 -18 0 
-15 -17  18 0 
-19  20 0 
-21  20 0 
 19  21 -20 0 
 19 -22 0 
 21 -22 0 
-19 -21  22 0 
-16  23 0 
-20  23 0 
 16  20 -23 0 
 16 -24 0 
 20 -24 0 
-16 -20  24 0 
-18  25 0 
-22  25 0 
 18  22 -25 0 
 18 -26 0 
 22 -26 0 
-18 -22  26 0 
-25  27 0 
-24  27 0 
 25  24 -27 0 
 25 -28 0 
 24 -28 0 
-25 -24  28 0 
-9  29 0 
-23  29 0 
 9  23 -29 0 
 9 -30 0 
 23 -30 0 
-9 -23  30 0 
-14  31 0 
-28  31 0 
 14  28 -31 0 
 14 -32 0 
 28 -32 0 
-14 -28  32 0 
-31  33 0 
-30  33 0 
 31  30 -33 0 
 31 -34 0 
 30 -34 0 
-31 -30  34 0 
-13  35 0 
-27  35 0 
 13  27 -35 0 
 13 -36 0 
 27 -36 0 
-13 -27  36 0 
-12  37 0 
-26  37 0 
 12  26 -37 0 
 12 -38 0 
 26 -38 0 
-12 -26  38 0 
-37  39 0 
-36  39 0 
 37  36 -39 0 
 37 -40 0 
 36 -40 0 
-37 -36  40 0 
-35  41 0 
-33  41 0 
 35  33 -41 0 
 35 -42 0 
 33 -42 0 
-35 -33  42 0 
-39  43 0 
-34  43 0 
 39  34 -43 0 
 39 -44 0 
 34 -44 0 
-39 -34  44 0 
-40  45 0 
-32  45 0 
 40  32 -45 0 
 40 -46 0 
 32 -46 0 
-40 -32  46 0 
-47  48 0 
-49  48 0 
 47  49 -48 0 
 47 -50 0 
 49 -50 0 
-47 -49  50 0 
-51  52 0 
-53  52 0 
 51  53 -52 0 
 51 -54 0 
 53 -54 0 
-51 -53  54 0 
-48  55 0 
-52  55 0 
 48  52 -55 0 
 48 -56 0 
 52 -56 0 
-48 -52  56 0 
-50  57 0 
-54  57 0 
 50  54 -57 0 
 50 -58 0 
 54 -58 0 
-50 -54  58 0 
-57  59 0 
-56  59 0 
 57  56 -59 0 
 57 -60 0 
 56 -60 0 
-57 -56  60 0 
-61  62 0 
-63  62 0 
 61  63 -62 0 
 61 -64 0 
 63 -64 0 
-61 -63  64 0 
-65  66 0 
-67  66 0 
 65  67 -66 0 
 65 -68 0 
 67 -68 0 
-65 -67  68 0 
-62  69 0 
-66  69 0 
 62  66 -69 0 
 62 -70 0 
 66 -70 0 
-62 -66  70 0 
-64  71 0 
-68  71 0 
 64  68 -71 0 
 64 -72 0 
 68 -72 0 
-64 -68  72 0 
-71  73 0 
-70  73 0 
 71  70 -73 0 
 71 -74 0 
 70 -74 0 
-71 -70  74 0 
-55  75 0 
-69  75 0 
 55  69 -75 0 
 55 -76 0 
 69 -76 0 
-55 -69  76 0 
-60  77 0 
-74  77 0 
 60  74 -77 0 
 60 -78 0 
 74 -78 0 
-60 -74  78 0 
-77  79 0 
-76  79 0 
 77  76 -79 0 
 77 -80 0 
 76 -80 0 
-77 -76  80 0 
-59  81 0 
-73  81 0 
 59  73 -81 0 
 59 -82 0 
 73 -82 0 
-59 -73  82 0 
-58  83 0 
-72  83 0 
 58  72 -83 0 
 58 -84 0 
 72 -84 0 
-58 -72  84 0 
-83  85 0 
-82  85 0 
 83  82 -85 0 
 83 -86 0 
 82 -86 0 
-83 -82  86 0 
-81  87 0 
-79  87 0 
 81  79 -87 0 
 81 -88 0 
 79 -88 0 
-81 -79  88 0 
-85  89 0 
-80  89 0 
 85  80 -89 0 
 85 -90 0 
 80 -90 0 
-85 -80  90 0 
-86  91 0 
-78  91 0 
 86  78 -91 0 
 86 -92 0 
 78 -92 0 
-86 -78  92 0 
-29  93 0 
-75  93 0 
 29  75 -93 0 
 29 -94 0 
 75 -94 0 
-29 -75  94 0 
-44  95 0 
-90  95 0 
 44  90 -95 0 
 44 -96 0 
 90 -96 0 
-44 -90  96 0 
-95  97 0 
-94  97 0 
 95  94 -97 0 
 95 -98 0 
 94 -98 0 
-95 -94  98 0 
-42  99 0 
-88  99 0 
 42  88 -99 0 
 42 -100 0 
 88 -100 0 
-42 -88  100 0 
-46  101 0 
-92  101 0 
 46  92 -101 0 
-46 -92 0 
-101  102 0 
-100  102 0 
 101  100 -102 0 
 101 -103 0 
 100 -103 0 
-101 -100  103 0 
-99  104 0 
-97  104 0 
 99  97 -104 0 
 99 -105 0 
 97 -105 0 
-99 -97  105 0 
-102  106 0 
-98  106 0 
 102  98 -106 0 
 102 -107 0 
 98 -107 0 
-102 -98  107 0 
-103  108 0 
-96  108 0 
 103  96 -108 0 
 103 -109 0 
 96 -109 0 
-103 -96  109 0 
-41  110 0 
-87  110 0 
 41  87 -110 0 
 41 -111 0 
 87 -111 0 
-41 -87  111 0 
-45  112 0 
-91  112 0 
 45  91 -112 0 
 45 -113 0 
 91 -113 0 
-45 -91  113 0 
-112  114 0 
-111  114 0 
 112  111 -114 0 
 112 -115 0 
 111 -115 0 
-112 -111  115 0 
-43  116 0 
-89  116 0 
 43  89 -116 0 
 43 -117 0 
 89 -117 0 
-43 -89  117 0 
-38  118 0 
-84  118 0 
 38  84 -118 0 
-38 -84 0 
-118  119 0 
-117  119 0 
 118  117 -119 0 
 118 -120 0 
 117 -120 0 
-118 -117  120 0 
-116  121 0 
-114  121 0 
 116  114 -121 0 
 116 -122 0 
 114 -122 0 
-116 -114  122 0 
-119  123 0 
-115  123 0 
 119  115 -123 0 
 119 -124 0 
 115 -124 0 
-119 -115  124 0 
-120  125 0 
-113  125 0 
 120  113 -125 0 
-120 -113 0 
-110  126 0 
-104  126 0 
 110  104 -126 0 
 110 -127 0 
 104 -127 0 
-110 -104  127 0 
-121  128 0 
-105  128 0 
 121  105 -128 0 
 121 -129 0 
 105 -129 0 
-121 -105  129 0 
-122  130 0 
-106  130 0 
 122  106 -130 0 
 122 -131 0 
 106 -131 0 
-122 -106  131 0 
-123  132 0 
-107  132 0 
 123  107 -132 0 
 123 -133 0 
 107 -133 0 
-123 -107  133 0 
-124  134 0 
-108  134 0 
 124  108 -134 0 
 124 -135 0 
 108 -135 0 
-124 -108  135 0 
-125  136 0 
-109  136 0 
 125  109 -136 0 
-125 -109 0 
-137  138 0 
-139  138 0 
 137  139 -138 0 
 137 -140 0 
 139 -140 0 
-137 -139  140 0 
-141  142 0 
-143  142 0 
 141  143 -142 0 
 141 -144 0 
 143 -144 0 
-141 -143  144 0 
-138  145 0 
-142  145 0 
 138  142 -145 0 
 138 -146 0 
 142 -146 0 
-138 -142  146 0 
-140  147 0 
-144  147 0 
 140  144 -147 0 
 140 -148 0 
 144 -148 0 
-140 -144  148 0 
-147  149 0 
-146  149 0 
 147  146 -149 0 
 147 -150 0 
 146 -150 0 
-147 -146  150 0 
-151  152 0 
-153  152 0 
 151  153 -152 0 
 151 -154 0 
 153 -154 0 
-151 -153  154 0 
-155  156 0 
-157  156 0 
 155  157 -156 0 
 155 -158 0 
 157 -158 0 
-155 -157  158 0 
-152  159 0 
-156  159 0 
 152  156 -159 0 
 152 -160 0 
 156 -160 0 
-152 -156  160 0 
-154  161 0 
-158  161 0 
 154  158 -161 0 
 154 -162 0 
 158 -162 0 
-154 -158  162 0 
-161  163 0 
-160  163 0 
 161  160 -163 0 
 161 -164 0 
 160 -164 0 
-161 -160  164 0 
-145  165 0 
-159  165 0 
 145  159 -165 0 
 145 -166 0 
 159 -166 0 
-145 -159  166 0 
-150  167 0 
-164  167 0 
 150  164 -167 0 
 150 -168 0 
 164 -168 0 
-150 -164  168 0 
-167  169 0 
-166  169 0 
 167  166 -169 0 
 167 -170 0 
 166 -170 0 
-167 -166  170 0 
-149  171 0 
-163  171 0 
 149  163 -171 0 
 149 -172 0 
 163 -172 0 
-149 -163  172 0 
-148  173 0 
-162  173 0 
 148  162 -173 0 
 148 -174 0 
 162 -174 0 
-148 -162  174 0 
-173  175 0 
-172  175 0 
 173  172 -175 0 
 173 -176 0 
 172 -176 0 
-173 -172  176 0 
-171  177 0 
-169  177 0 
 171  169 -177 0 
 171 -178 0 
 169 -178 0 
-171 -169  178 0 
-175  179 0 
-170  179 0 
 175  170 -179 0 
 175 -180 0 
 170 -180 0 
-175 -170  180 0 
-176  181 0 
-168  181 0 
 176  168 -181 0 
 176 -182 0 
 168 -182 0 
-176 -168  182 0 
-183  184 0 
-185  184 0 
 183  185 -184 0 
 183 -186 0 
 185 -186 0 
-183 -185  186 0 
-187  188 0 
-189  188 0 
 187  189 -188 0 
 187 -190 0 
 189 -190 0 
-187 -189  190 0 
-184  191 0 
-188  191 0 
 184  188 -191 0 
 184 -192 0 
 188 -192 0 
-184 -188  192 0 
-186  193 0 
-190  193 0 
 186  190 -193 0 
 186 -194 0 
 190 -194 0 
-186 -190  194 0 
-193  195 0 
-192  195 0 
 193  192 -195 0 
 193 -196 0 
 192 -196 0 
-193 -192  196 0 
-197  198 0 
-199  198 0 
 197  199 -198 0 
 197 -200 0 
 199 -200 0 
-197 -199  200 0 
-201  202 0 
-203  202 0 
 201  203 -202 0 
 201 -204 0 
 203 -204 0 
-201 -203  204 0 
-198  205 0 
-202  205 0 
 198  202 -205 0 
 198 -206 0 
 202 -206 0 
-198 -202  206 0 
-200  207 0 
-204  207 0 
 200  204 -207 0 
 200 -208 0 
 204 -208 0 
-200 -204  208 0 
-207  209 0 
-206  209 0 
 207  206 -209 0 
 207 -210 0 
 206 -210 0 
-207 -206  210 0 
-191  211 0 
-205  211 0 
 191  205 -211 0 
 191 -212 0 
 205 -212 0 
-191 -205  212 0 
-196  213 0 
-210  213 0 
 196  210 -213 0 
 196 -214 0 
 210 -214 0 
-196 -210  214 0 
-213  215 0 
-212  215 0 
 213  212 -215 0 
 213 -216 0 
 212 -216 0 
-213 -212  216 0 
-195  217 0 
-209  217 0 
 195  209 -217 0 
 195 -218 0 
 209 -218 0 
-195 -209  218 0 
-194  219 0 
-208  219 0 
 194  208 -219 0 
 194 -220 0 
 208 -220 0 
-194 -208  220 0 
-219  221 0 
-218  221 0 
 219  218 -221 0 
 219 -222 0 
 218 -222 0 
-219 -218  222 0 
-217  223 0 
-215  223 0 
 217  215 -223 0 
 217 -224 0 
 215 -224 0 
-217 -215  224 0 
-221  225 0 
-216  225 0 
 221  216 -225 0 
 221 -226 0 
 216 -226 0 
-221 -216  226 0 
-222  227 0 
-214  227 0 
 222  214 -227 0 
 222 -228 0 
 214 -228 0 
-222 -214  228 0 
-165  229 0 
-211  229 0 
 165  211 -229 0 
 165 -230 0 
 211 -230 0 
-165 -211  230 0 
-180  231 0 
-226  231 0 
 180  226 -231 0 
 180 -232 0 
 226 -232 0 
-180 -226  232 0 
-231  233 0 
-230  233 0 
 231  230 -233 0 
 231 -234 0 
 230 -234 0 
-231 -230  234 0 
-178  235 0 
-224  235 0 
 178  224 -235 0 
 178 -236 0 
 224 -236 0 
-178 -224  236 0 
-182  237 0 
-228  237 0 
 182  228 -237 0 
-182 -228 0 
-237  238 0 
-236  238 0 
 237  236 -238 0 
 237 -239 0 
 236 -239 0 
-237 -236  239 0 
-235  240 0 
-233  240 0 
 235  233 -240 0 
 235 -241 0 
 233 -241 0 
-235 -233  241 0 
-238  242 0 
-234  242 0 
 238  234 -242 0 
 238 -243 0 
 234 -243 0 
-238 -234  243 0 
-239  244 0 
-232  244 0 
 239  232 -244 0 
 239 -245 0 
 232 -245 0 
-239 -232  245 0 
-177  246 0 
-223  246 0 
 177  223 -246 0 
 177 -247 0 
 223 -247 0 
-177 -223  247 0 
-181  248 0 
-227  248 0 
 181  227 -248 0 
 181 -249 0 
 227 -249 0 
-181 -227  249 0 
-248  250 0 
-247  250 0 
 248  247 -250 0 
 248 -251 0 
 247 -251 0 
-248 -247  251 0 
-179  252 0 
-225  252 0 
 179  225 -252 0 
 179 -253 0 
 225 -253 0 
-179 -225  253 0 
-174  254 0 
-220  254 0 
 174  220 -254 0 
-174 -220 0 
-254  255 0 
-253  255 0 
 254  253 -255 0 
 254 -256 0 
 253 -256 0 
-254 -253  256 0 
-252  257 0 
-250  257 0 
 252  250 -257 0 
 252 -258 0 
 250 -258 0 
-252 -250  258 0 
-255  259 0 
-251  259 0 
 255  251 -259 0 
 255 -260 0 
 251 -260 0 
-255 -251  260 0 
-256  261 0 
-249  261 0 
 256  249 -261 0 
-256 -249 0 
-246  262 0 
-240  262 0 
 246  240 -262 0 
 246 -263 0 
 240 -263 0 
-246 -240  263 0 
-257  264 0 
-241  264 0 
 257  241 -264 0 
 257 -265 0 
 241 -265 0 
-257 -241  265 0 
-258  266 0 
-242  266 0 
 258  242 -266 0 
 258 -267 0 
 242 -267 0 
-258 -242  267 0 
-259  268 0 
-243  268 0 
 259  243 -268 0 
 259 -269 0 
 243 -269 0 
-259 -243  269 0 
-260  270 0 
-244  270 0 
 260  244 -270 0 
 260 -271 0 
 244 -271 0 
-260 -244  271 0 
-261  272 0 
-245  272 0 
 261  245 -272 0 
-261 -245 0 
 93 -273 0 
 229 -273 0 
-93 -229  273 0 
-133  274 0 
-269  274 0 
 133  269 -274 0 
-133 -269 0 
-274  275 0 
-273  275 0 
 274  273 -275 0 
-274 -273 0 
-129  276 0 
-265  276 0 
 129  265 -276 0 
-129 -265 0 
 276 -277 0 
 275 -277 0 
-276 -275  277 0 
 127 -278 0 
 263 -278 0 
-127 -263  278 0 
-135  279 0 
-271  279 0 
 135  271 -279 0 
-135 -271 0 
-279  280 0 
-278  280 0 
 279  278 -280 0 
-279 -278 0 
-131  281 0 
-267  281 0 
 131  267 -281 0 
-131 -267 0 
-281  282 0 
-280  282 0 
 281  280 -282 0 
-281 -280 0 
 282 -283 0 
 277 -283 0 
-282 -277  283 0 
 126 -284 0 
 262 -284 0 
-126 -262  284 0 
-134  285 0 
-270  285 0 
 134  270 -285 0 
-134 -270 0 
-285  286 0 
-284  286 0 
 285  284 -286 0 
-285 -284 0 
-130  287 0 
-266  287 0 
 130  266 -287 0 
-130 -266 0 
 287 -288 0 
 286 -288 0 
-287 -286  288 0 
 128 -289 0 
 264 -289 0 
-128 -264  289 0 
-136  290 0 
-272  290 0 
 136  272 -290 0 
-136 -272 0 
-290  291 0 
-289  291 0 
 290  289 -291 0 
-290 -289 0 
-132  292 0 
-268  292 0 
 132  268 -292 0 
-132 -268 0 
-292  293 0 
-291  293 0 
 292  291 -293 0 
-292 -291 0 
-293  294 0 
-288  294 0 
 293  288 -294 0 
-293 -288 0 
-294 -283 0 
-1  295 0 
-3  295 0 
 1  3 -295 0 
 1 -296 0 
 3 -296 0 
-1 -3  296 0 
-5  297 0 
-7  297 0 
 5  7 -297 0 
 5 -298 0 
 7 -298 0 
-5 -7  298 0 
-295  299 0 
-297  299 0 
 295  297 -299 0 
 295 -300 0 
 297 -300 0 
-295 -297  300 0 
-296  301 0 
-298  301 0 
 296  298 -301 0 
 296 -302 0 
 298 -302 0 
-296 -298  302 0 
-301  303 0 
-300  303 0 
 301  300 -303 0 
 301 -304 0 
 300 -304 0 
-301 -300  304 0 
-15  305 0 
-17  305 0 
 15  17 -305 0 
 15 -306 0 
 17 -306 0 
-15 -17  306 0 
-19  307 0 
-21  307 0 
 19  21 -307 0 
 19 -308 0 
 21 -308 0 
-19 -21  308 0 
-305  309 0 
-307  309 0 
 305  307 -309 0 
 305 -310 0 
 307 -310 0 
-305 -307  310 0 
-306  311 0 
-308  311 0 
 306  308 -311 0 
 306 -312 0 
 308 -312 0 
-306 -308  312 0 
-311  313 0 
-310  313 0 
 311  310 -313 0 
 311 -314 0 
 310 -314 0 
-311 -310  314 0 
-299  315 0 
-309  315 0 
 299  309 -315 0 
 299 -316 0 
 309 -316 0 
-299 -309  316 0 
-304  317 0 
-314  317 0 
 304  314 -317 0 
 304 -318 0 
 314 -318 0 
-304 -314  318 0 
-317  319 0 
-316  319 0 
 317  316 -319 0 
 317 -320 0 
 316 -320 0 
-317 -316  320 0 
-303  321 0 
-313  321 0 
 303  313 -321 0 
 303 -322 0 
 313 -322 0 
-303 -313  322 0 
-302  323 0 
-312  323 0 
 302  312 -323 0 
 302 -324 0 
 312 -324 0 
-302 -312  324 0 
-323  325 0 
-322  325 0 
 323  322 -325 0 
 323 -326 0 
 322 -326 0 
-323 -322  326 0 
-321  327 0 
-319  327 0 
 321  319 -327 0 
 321 -328 0 
 319 -328 0 
-321 -319  328 0 
-325  329 0 
-320  329 0 
 325  320 -329 0 
 325 -330 0 
 320 -330 0 
-325 -320  330 0 
-326  331 0 
-318  331 0 
 326  318 -331 0 
 326 -332 0 
 318 -332 0 
-326 -318  332 0 
-47  333 0 
-49  333 0 
 47  49 -333 0 
 47 -334 0 
 49 -334 0 
-47 -49  334 0 
-51  335 0 
-53  335 0 
 51  53 -335 0 
 51 -336 0 
 53 -336 0 
-51 -53  336 0 
-333  337 0 
-335  337 0 
 333  335 -337 0 
 333 -338 0 
 335 -338 0 
-333 -335  338 0 
-334  339 0 
-336  339 0 
 334  336 -339 0 
 334 -340 0 
 336 -340 0 
-334 -336  340 0 
-339  341 0 
-338  341 0 
 339  338 -341 0 
 339 -342 0 
 338 -342 0 
-339 -338  342 0 
-61  343 0 
-63  343 0 
 61  63 -343 0 
 61 -344 0 
 63 -344 0 
-61 -63  344 0 
-65  345 0 
-67  345 0 
 65  67 -345 0 
 65 -346 0 
 67 -346 0 
-65 -67  346 0 
-343  347 0 
-345  347 0 
 343  345 -347 0 
 343 -348 0 
 345 -348 0 
-343 -345  348 0 
-344  349 0 
-346  349 0 
 344  346 -349 0 
 344 -350 0 
 346 -350 0 
-344 -346  350 0 
-349  351 0 
-348  351 0 
 349  348 -351 0 
 349 -352 0 
 348 -352 0 
-349 -348  352 0 
-337  353 0 
-347  353 0 
 337  347 -353 0 
 337 -354 0 
 347 -354 0 
-337 -347  354 0 
-342  355 0 
-352  355 0 
 342  352 -355 0 
 342 -356 0 
 352 -356 0 
-342 -352  356 0 
-355  357 0 
-354  357 0 
 355  354 -357 0 
 355 -358 0 
 354 -358 0 
-355 -354  358 0 
-341  359 0 
-351  359 0 
 341  351 -359 0 
 341 -360 0 
 351 -360 0 
-341 -351  360 0 
-340  361 0 
-350  361 0 
 340  350 -361 0 
 340 -362 0 
 350 -362 0 
-340 -350  362 0 
-361  363 0 
-360  363 0 
 361  360 -363 0 
 361 -364 0 
 360 -364 0 
-361 -360  364 0 
-359  365 0 
-357  365 0 
 359  357 -365 0 
 359 -366 0 
 357 -366 0 
-359 -357  366 0 
-363  367 0 
-358  367 0 
 363  358 -367 0 
 363 -368 0 
 358 -368 0 
-363 -358  368 0 
-364  369 0 
-356  369 0 
 364  356 -369 0 
 364 -370 0 
 356 -370 0 
-364 -356  370 0 
-315  371 0 
-353  371 0 
 315  353 -371 0 
 315 -372 0 
 353 -372 0 
-315 -353  372 0 
-330  373 0 
-368  373 0 
 330  368 -373 0 
 330 -374 0 
 368 -374 0 
-330 -368  374 0 
-373  375 0 
-372  375 0 
 373  372 -375 0 
 373 -376 0 
 372 -376 0 
-373 -372  376 0 
-328  377 0 
-366  377 0 
 328  366 -377 0 
 328 -378 0 
 366 -378 0 
-328 -366  378 0 
-332  379 0 
-370  379 0 
 332  370 -379 0 
-379  380 0 
-378  380 0 
 379  378 -380 0 
 379 -381 0 
 378 -381 0 
-379 -378  381 0 
-377  382 0 
-375  382 0 
 377  375 -382 0 
 377 -383 0 
 375 -383 0 
-377 -375  383 0 
-380  384 0 
-376  384 0 
 380  376 -384 0 
 380 -385 0 
 376 -385 0 
-380 -376  385 0 
-381  386 0 
-374  386 0 
 381  374 -386 0 
 381 -387 0 
 374 -387 0 
-381 -374  387 0 
-327  388 0 
-365  388 0 
 327  365 -388 0 
 327 -389 0 
 365 -389 0 
-327 -365  389 0 
-331  390 0 
-369  390 0 
 331  369 -390 0 
 331 -391 0 
 369 -391 0 
-331 -369  391 0 
-390  392 0 
-389  392 0 
 390  389 -392 0 
 390 -393 0 
 389 -393 0 
-390 -389  393 0 
-329  394 0 
-367  394 0 
 329  367 -394 0 
 329 -395 0 
 367 -395 0 
-329 -367  395 0 
-324  396 0 
-362  396 0 
 324  362 -396 0 
-396  397 0 
-395  397 0 
 396  395 -397 0 
 396 -398 0 
 395 -398 0 
-396 -395  398 0 
-394  399 0 
-392  399 0 
 394  392 -399 0 
 394 -400 0 
 392 -400 0 
-394 -392  400 0 
-397  401 0 
-393  401 0 
 397  393 -401 0 
 397 -402 0 
 393 -402 0 
-397 -393  402 0 
-398  403 0 
-391  403 0 
 398  391 -403 0 
-388  404 0 
-382  404 0 
 388  382 -404 0 
 388 -405 0 
 382 -405 0 
-388 -382  405 0 
-399  406 0 
-383  406 0 
 399  383 -406 0 
 399 -407 0 
 383 -407 0 
-399 -383  407 0 
-400  408 0 
-384  408 0 
 400  384 -408 0 
 400 -409 0 
 384 -409 0 
-400 -384  409 0 
-401  410 0 
-385  410 0 
 401  385 -410 0 
 401 -411 0 
 385 -411 0 
-401 -385  411 0 
-402  412 0 
-386  412 0 
 402  386 -412 0 
 402 -413 0 
 386 -413 0 
-402 -386  413 0 
-403  414 0 
-387  414 0 
 403  387 -414 0 
-137  415 0 
-139  415 0 
 137  139 -415 0 
 137 -416 0 
 139 -416 0 
-137 -139  416 0 
-141  417 0 
-143  417 0 
 141  143 -417 0 
 141 -418 0 
 143 -418 0 
-141 -143  418 0 
-415  419 0 
-417  419 0 
 415  417 -419 0 
 415 -420 0 
 417 -420 0 
-415 -417  420 0 
-416  421 0 
-418  421 0 
 416  418 -421 0 
 416 -422 0 
 418 -422 0 
-416 -418  422 0 
-421  423 0 
-420  423 0 
 421  420 -423 0 
 421 -424 0 
 420 -424 0 
-421 -420  424 0 
-151  425 0 
-153  425 0 
 151  153 -425 0 
 151 -426 0 
 153 -426 0 
-151 -153  426 0 
-155  427 0 
-157  427 0 
 155  157 -427 0 
 155 -428 0 
 157 -428 0 
-155 -157  428 0 
-425  429 0 
-427  429 0 
 425  427 -429 0 
 425 -430 0 
 427 -430 0 
-425 -427  430 0 
-426  431 0 
-428  431 0 
 426  428 -431 0 
 426 -432 0 
 428 -432 0 
-426 -428  432 0 
-431  433 0 
-430  433 0 
 431  430 -433 0 
 431 -434 0 
 430 -434 0 
-431 -430  434 0 
-419  435 0 
-429  435 0 
 419  429 -435 0 
 419 -436 0 
 429 -436 0 
-419 -429  436 0 
-424  437 0 
-434  437 0 
 424  434 -437 0 
 424 -438 0 
 434 -438 0 
-424 -434  438 0 
-437  439 0 
-436  439 0 
 437  436 -439 0 
 437 -440 0 
 436 -440 0 
-437 -436  440 0 
-423  441 0 
-433  441 0 
 423  433 -441 0 
 423 -442 0 
 433 -442 0 
-423 -433  442 0 
-422  443 0 
-432  443 0 
 422  432 -443 0 
 422 -444 0 
 432 -444 0 
-422 -432  444 0 
-443  445 0 
-442  445 0 
 443  442 -445 0 
 443 -446 0 
 442 -446 0 
-443 -442  446 0 
-441  447 0 
-439  447 0 
 441  439 -447 0 
 441 -448 0 
 439 -448 0 
-441 -439  448 0 
-445  449 0 
-440  449 0 
 445  440 -449 0 
 445 -450 0 
 440 -450 0 
-445 -440  450 0 
-446  451 0 
-438  451 0 
 446  438 -451 0 
 446 -452 0 
 438 -452 0 
-446 -438  452 0 
-183  453 0 
-185  453 0 
 183  185 -453 0 
 183 -454 0 
 185 -454 0 
-183 -185  454 0 
-187  455 0 
-189  455 0 
 187  189 -455 0 
 187 -456 0 
 189 -456 0 
-187 -189  456 0 
-453  457 0 
-455  457 0 
 453  455 -457 0 
 453 -458 0 
 455 -458 0 
-453 -455  458 0 
-454  459 0 
-456  459 0 
 454  456 -459 0 
 454 -460 0 
 456 -460 0 
-454 -456  460 0 
-459  461 0 
-458  461 0 
 459  458 -461 0 
 459 -462 0 
 458 -462 0 
-459 -458  462 0 
-197  463 0 
-199  463 0 
 197  199 -463 0 
 197 -464 0 
 199 -464 0 
-197 -199  464 0 
-201  465 0 
-203  465 0 
 201  203 -465 0 
 201 -466 0 
 203 -466 0 
-201 -203  466 0 
-463  467 0 
-465  467 0 
 463  465 -467 0 
 463 -468 0 
 465 -468 0 
-463 -465  468 0 
-464  469 0 
-466  469 0 
 464  466 -469 0 
 464 -470 0 
 466 -470 0 
-464 -466  470 0 
-469  471 0 
-468  471 0 
 469  468 -471 0 
 469 -472 0 
 468 -472 0 
-469 -468  472 0 
-457  473 0 
-467  473 0 
 457  467 -473 0 
 457 -474 0 
 467 -474 0 
-457 -467  474 0 
-462  475 0 
-472  475 0 
 462  472 -475 0 
 462 -476 0 
 472 -476 0 
-462 -472  476 0 
-475  477 0 
-474  477 0 
 475  474 -477 0 
 475 -478 0 
 474 -478 0 
-475 -474  478 0 
-461  479 0 
-471  479 0 
 461  471 -479 0 
 461 -480 0 
 471 -480 0 
-461 -471  480 0 
-460  481 0 
-470  481 0 
 460  470 -481 0 
 460 -482 0 
 470 -482 0 
-460 -470  482 0 
-481  483 0 
-480  483 0 
 481  480 -483 0 
 481 -484 0 
 480 -484 0 
-481 -480  484 0 
-479  485 0 
-477  485 0 
 479  477 -485 0 
 479 -486 0 
 477 -486 0 
-479 -477  486 0 
-483  487 0 
-478  487 0 
 483  478 -487 0 
 483 -488 0 
 478 -488 0 
-483 -478  488 0 
-484  489 0 
-476  489 0 
 484  476 -489 0 
 484 -490 0 
 476 -490 0 
-484 -476  490 0 
-435  491 0 
-473  491 0 
 435  473 -491 0 
 435 -492 0 
 473 -492 0 
-435 -473  492 0 
-450  493 0 
-488  493 0 
 450  488 -493 0 
 450 -494 0 
 488 -494 0 
-450 -488  494 0 
-493  495 0 
-492  495 0 
 493  492 -495 0 
 493 -496 0 
 492 -496 0 
-493 -492  496 0 
-448  497 0 
-486  497 0 
 448  486 -497 0 
 448 -498 0 
 486 -498 0 
-448 -486  498 0 
-452  499 0 
-490  499 0 
 452  490 -499 0 
-499  500 0 
-498  500 0 
 499  498 -500 0 
 499 -501 0 
 498 -501 0 
-499 -498  501 0 
-497  502 0 
-495  502 0 
 497  495 -502 0 
 497 -503 0 
 495 -503 0 
-497 -495  503 0 
-500  504 0 
-496  504 0 
 500  496 -504 0 
 500 -505 0 
 496 -505 0 
-500 -496  505 0 
-501  506 0 
-494  506 0 
 501  494 -506 0 
 501 -507 0 
 494 -507 0 
-501 -494  507 0 
-447  508 0 
-485  508 0 
 447  485 -508 0 
 447 -509 0 
 485 -509 0 
-447 -485  509 0 
-451  510 0 
-489  510 0 
 451  489 -510 0 
 451 -511 0 
 489 -511 0 
-451 -489  511 0 
-510  512 0 
-509  512 0 
 510  509 -512 0 
 510 -513 0 
 509 -513 0 
-510 -509  513 0 
-449  514 0 
-487  514 0 
 449  487 -514 0 
 449 -515 0 
 487 -515 0 
-449 -487  515 0 
-444  516 0 
-482  516 0 
 444  482 -516 0 
-516  517 0 
-515  517 0 
 516  515 -517 0 
 516 -518 0 
 515 -518 0 
-516 -515  518 0 
-514  519 0 
-512  519 0 
 514  512 -519 0 
 514 -520 0 
 512 -520 0 
-514 -512  520 0 
-517  521 0 
-513  521 0 
 517  513 -521 0 
 517 -522 0 
 513 -522 0 
-517 -513  522 0 
-518  523 0 
-511  523 0 
 518  511 -523 0 
-508  524 0 
-502  524 0 
 508  502 -524 0 
 508 -525 0 
 502 -525 0 
-508 -502  525 0 
-519  526 0 
-503  526 0 
 519  503 -526 0 
 519 -527 0 
 503 -527 0 
-519 -503  527 0 
-520  528 0 
-504  528 0 
 520  504 -528 0 
 520 -529 0 
 504 -529 0 
-520 -504  529 0 
-521  530 0 
-505  530 0 
 521  505 -530 0 
 521 -531 0 
 505 -531 0 
-521 -505  531 0 
-522  532 0 
-506  532 0 
 522  506 -532 0 
 522 -533 0 
 506 -533 0 
-522 -506  533 0 
-523  534 0 
-507  534 0 
 523  507 -534 0 
 371  491 0 
 371 -535 0 
 491 -535 0 
-371 -491  535 0 
-411  536 0 
-531  536 0 
 411  531 -536 0 
 536  535 0 
 407  527 0 
 405  525 0 
 405 -537 0 
 525 -537 0 
-405 -525  537 0 
-413  538 0 
-533  538 0 
 413  533 -538 0 
-538  539 0 
-537  539 0 
 538  537 -539 0 
-409  540 0 
-529  540 0 
 409  529 -540 0 
 540  539 0 
 404  524 0 
 404 -541 0 
 524 -541 0 
-404 -524  541 0 
-412  542 0 
-532  542 0 
 412  532 -542 0 
-542  543 0 
-541  543 0 
 542  541 -543 0 
-408  544 0 
-528  544 0 
 408  528 -544 0 
 544  543 0 
 544 -545 0 
 543 -545 0 
-544 -543  545 0 
 406  526 0 
 406 -546 0 
 526 -546 0 
-406 -526  546 0 
-414  547 0 
-534  547 0 
 414  534 -547 0 
-547  548 0 
-546  548 0 
 547  546 -548 0 
-410  549 0 
-530  549 0 
 410  530 -549 0 
-549  550 0 
-548  550 0 
 549  548 -550 0 
 550  545 0 
